38 89 41 30 8 26 69 24 40 10 80 39 72 48 85 21 73 66 93 74 43 95 16 44 84 57 37 61 42 1 98 92 49 18 63 3 17 96 51 79 28 52 47 14 77 70 59 33 23 5 12 75 71 25 19 27 36 15 32 9 76 86 45 94 54 4 68 64 11 6 50 2 82 67 31 65 55 60 13 58 7 22 29 81 97 78 20 87 53 35 88 99 62 90 56 91 46 34 0 83 

